WARNING: for repeatability, setting FPU to use double precision
============================[ Problem Statistics ]=============================
|                                                                             |
|  Number of variables:            50                                         |
|  Number of clauses:             218                                         |
|  Parse time:                   0.00 s                                       |
|                                                                             |
============================[ Search Statistics ]==============================
| Conflicts |          ORIGINAL         |          LEARNT          | Progress |
|           |    Vars  Clauses Literals |    Limit  Clauses Lit/Cl |          |
===============================================================================
===============================================================================
restarts              : 1
conflicts             : 6              (4422 /sec)
decisions             : 25             (0.00 % random) (18423 /sec)
propagations          : 115            (84746 /sec)
conflict literals     : 27             (6.90 % deleted)
Memory used           : 20.00 MB
CPU time              : 0.001357 s

SATISFIABLE
